c turning on binary mode checking
c parsing input formula with 259840 variables and 1039934 clauses
c finished parsing, read 22439407 bytes from proof file
c detected empty clause; start verification via backward checking
c 8962 of 1039934 clauses in core                            
c 3889 of 586709 lemmas in core using 78584 resolution steps
c 0 RAT lemmas in core; 279 redundant literals in core lemmas
s VERIFIED
c verification time: 2.858 seconds
